10
19
27
35
42
45
52
55
61
64
69
72
76
79
82
86
89
92
96
99
101
105
108
110
114
117
119
122
125
127
130
133
135
137
140
142
144
147
149
151
154
156
158
161
163
164
167
169
171
173
175
177
179
181
182
185
187
188
190
192
194
195
197
198
200
202
204
205
207
208
210
212
214
215
217
218
220
222
224
225
227
228
230
232
233
235
236
237
239
241
242
244
245
246
248
250
251
253
254
255
257
258
260
261
262
264
265
266
267
268
270
271
272
274
275
276
277
278
280
281
282
283
284
285
287
288
289
290
291
292
294
295
296
297
298
299
300
302
303
304
305
306
307
308
309
311
312
313
314
315
316
317
318
320
321
322
323
324
325
326
327
328
330
331
332
333
334
335
336
337
338
339
340
341
342
343
344
345
346
347
348
349
350
351
352
353
354
355
356
357
358
359
360
361
362
363
364
365
366
367
368
369
370
371
372
373
374
375
376
377
378
379
380
381
382
383
384
384
385
386
387
388
389
390
391
392
393
393
394
395
396
397
398
399
400
401
401
402
403
404
405
406
407
408
408
409
410
411
412
413
414
414
415
416
417
418
419
419
420
421
422
423
423
424
425
426
427
427
428
429
430
431
431
432
433
434
435
435
436
437
438
439
439
440
441
442
443
443
444
445
446
446
447
448
449
450
450
451
452
453
453
454
455
455
456
457
458
458
459
460
460
461
462
463
463
464
465
465
466
467
468
468
469
470
470
471
472
473
473
474
475
475
476
477
477
478
479
480
480
481
482
482
483
483
484
485
486
486
487
488
488
488
489
490
491
491
492
493
493
493
494
495
496
496
497
498
498
498
499
500
501
501
502
503
503
503
504
505
505
506
507
507
508
508
509
509
510
510
511
512
512
512
513
514
514
514
515
515
516
516
517
517
517
518
518
519
519
520
520
520
521
521
522
522
522
523
523
524
524
524
525
525
525
526
526
527
527
527
528
528
528
529
529
529
530
530
530
531
531
531
532
532
532
533
533
533
534
534
534
535
535
535
535
536
536
536
537
537
537
538
538
538
538
539
539
539
540
540
540
541
541
541
541
542
542
542
543
543
543
543
543
544
544
544
544
545
545
545
545
545
546
546
546
546
546
547
547
547
547
547
548
548
548
548
548
549
549
549
549
549
550
550
550
550
550
551
551
551
551
551
552
552
552
552
552
553
553
553
553
553
554
554
554
554
554
555
555
555
555
555
556
556
556
556
556
557
557
557
557
557
557
557
557
558
558
558
558
558
558
558
558
559
559
559
559
559
559
559
559
559
559
560
560
560
560
560
560
560
560
560
560
561
561
561
561
561
561
561
561
561
561
561
561
561
561
561
561
561
561
561
561
561
561
561
561
561
561
561
561
561
561
561
561
561
561
561
561
561
561
561
561
561
561
561
561
561
561
561
561
561
561
561
561
561
561
561
561
561
561
561
561
561
561
561
561
561
561
561
561
561
561
561
561
561
561
561
561
561
561
561
561
561
561
561
561
561
561
561
561
561
561
561
561
561
561
561
561
561
561
561
561
561
561
561
561
561
561
561
561
561
561
561
561
561
561
561
561
561
561
561
561
561
561
561
561
561
561
561
561
561
561
561
561
561
561
561
561
561
561
561
561
561
561
561
561
561
561
561
561
561
561
561
561
561
561
561
561
561
561
561
561
561
561
561
561
561
561
561
561
561
561
561
561
561
561
561
561
561
561
561
561
561
561
561
561
561
561
561
561
561
561
561
561
561
561
561
561
561
561
561
561
561
561
561
561
561
561
561
561
561
561
561
561
561
561
561
561
561
561
561
561
561
561
561
561
561
561
561
561
561
561
561
561
561
561
561
561
561
561
561
561
561
561
561
561
561
561
561
561
561
561
561
561
561
561
561
561
561
561
561
561
561
561
561
561
561
561
561
561
561
561
561
561
561
561
561
561
561
561
561
561
561
561
561
561
561
561
561
561
561
561
561
561
561
561
561
561
561
561
561
561
561
561
561
561
561
561
561
561
561
561
561
561
561
561
561
561
561
561
561
561
561
561
561
561
561
561
561
561
561
561
561
561
561
561
561
561
561
561
561
561
561
561
561
561
561
561
561
561
561
561
561
561
561
561
561
561
561
561
561
561
561
561
561
561
561
561
561
561
561
561
561
561
561
561
561
561
561
561
561
561
561
561
561
561
561
561
561
561
561
561
561
561
561
561
561
561
561
561
561
561
561
561
561
561
561
561
561
561
561
561
561
561
561
561
561
561
561
561
561
